NAME: rat99
COMMENT: Quick (5min) local search tour for rat99 (1393.8754603777193)
TYPE: TOUR
DIMENSION: 99
TOUR_SECTION: 1 2 3 12 11 4 14 5 6 7 8 9 18 17 27 43 33 34 44 36 35 26 25 24 23 15 16 13 22 21 30 29 31 32 41 42 51 52 53 45 54 63 62 61 69 80 71 70 72 81 89 90 99 98 97 96 94 93 92 91 82 83 95 86 87 88 79 78 77 76 85 84 73 64 55 46 47 57 56 65 66 74 75 68 67 59 58 49 60 50 40 39 48 38 37 28 19 20 10 -1
EOF